160
423
457
40
57
36
430
334
168
239
324
141
220
423
158
131
49
486
112
383
363
277
267
37
405
187
224
169
442
239
15
456
184
241
243
441
47
42
115
369
192
1
423
170
357
117
105
341
109
488
358
5
496
32
11
475
415
211
481
22
413
141
23
376
185
65
275
339
160
441
164
37
118
149
417
97
384
149
110
373
340
443
262
268
299
479
207
262
244
2
454
402
493
257
190
78
166
442
400
473
44
467
181
8
3
137
82
208
403
484
145
463
160
52
335
4
178
83
432
468
46
317
270
33
194
396
112
46
294
492
331
268
359
118
251
23
333
24
95
165
496
272
394
379
183
389
25
157
243
299
313
197
70
482
421
250
200
52
364
64
294
175
